RT is False
Default write of storage_offers_DA.csv just to have a file (but constraint should be inactive)
Reading model...
...model read.
creating competitive generators file...
...competitive generators recorded.
Loading data...
.. day-ahead data with real-time VRE data read.
Compiling instance...
...instance created.
Creating Offer Mitigation (model will solve as dispatch if TRUE)...
Solving...

Welcome to IBM(R) ILOG(R) CPLEX(R) Interactive Optimizer 12.9.0.0
  with Simplex, Mixed Integer & Barrier Optimizers
5725-A06 5725-A29 5724-Y48 5724-Y49 5724-Y54 5724-Y55 5655-Y21
Copyright IBM Corp. 1988, 2019.  All Rights Reserved.

Type 'help' for a list of available commands.
Type 'help' followed by a command name for more
information on commands.

CPLEX> Logfile 'cplex.log' closed.
Logfile 'C:\Users\llavin\Desktop\test919\logs\tmpdnswyr4b.cplex.log' open.
CPLEX> New value for parallel optimization mode: -1
CPLEX> New value for mixed integer optimality gap tolerance: 0.01
CPLEX> New value for integrality tolerance: 1e-09
CPLEX> New value for feasibility tolerance: 0.01
CPLEX> New value for deterministic time limit in ticks: 75000
CPLEX> Problem 'C:\Users\llavin\Desktop\test919\logs\tmpfwg8odv1.pyomo.lp' read.
Read time = 0.05 sec. (3.04 ticks)
CPLEX> Problem name         : C:\Users\llavin\Desktop\test919\logs\tmpfwg8odv1.pyomo.lp
Objective sense      : Minimize
Variables            :   26081  [Nneg: 1,  Box: 21616,  Free: 4464]
Objective nonzeros   :    2496
Linear constraints   :   27515  [Less: 14006,  Greater: 4416,  Equal: 9093]
  Nonzeros           :   89267
  RHS nonzeros       :   12271

Variables            : Min LB: -5000.000        Max UB: 1000000.       
Objective nonzeros   : Min   : 15.73158         Max   : 124.0997       
Linear constraints   :
  Nonzeros           : Min   : 0.8500000        Max   : 3000.000       
  RHS nonzeros       : Min   : 0.07500000       Max   : 5000.000       
CPLEX> CPXPARAM_Parallel                                -1
CPXPARAM_Simplex_Tolerances_Feasibility          0.01
CPXPARAM_DetTimeLimit                            75000
CPXPARAM_MIP_Tolerances_MIPGap                   0.01
CPXPARAM_MIP_Tolerances_Integrality              1.0000000000000001e-09
Parallel mode: opportunistic, using up to 32 threads for concurrent optimization.
Tried aggregator 1 time.
LP Presolve eliminated 21353 rows and 15463 columns.
Aggregator did 775 substitutions.
Reduced LP has 5387 rows, 9843 columns, and 31802 nonzeros.
Presolve time = 0.06 sec. (30.45 ticks)
Symmetry aggregator did 5563 additional substitutions.

Iteration log . . .
Iteration:     1   Dual objective     =             0.000000
Perturbation started.
Iteration:   101   Dual objective     =             0.000000
Iteration:   327   Dual objective     =             1.173191
Iteration:   581   Dual objective     =             1.697342
Iteration:   840   Dual objective     =             1.819490
Iteration:  1049   Dual objective     =             1.936951
Iteration:  1323   Dual objective     =             1.987116
Iteration:  1574   Dual objective     =             2.016434
Iteration:  1788   Dual objective     =         32480.957422
Iteration:  2002   Dual objective     =        250769.518634
Iteration:  2202   Dual objective     =        270671.894052
Iteration:  2383   Dual objective     =        270671.906309
Iteration:  2650   Dual objective     =        274923.436309
Iteration:  3097   Dual objective     =        274951.134687
Removing perturbation.
Dual superbasis not built.
Using devex.

Primal simplex solved model.


Primal simplex - Optimal:  Objective =  2.7494902792e+05
Solution time =    0.17 sec.  Iterations = 1612 (1012)
Deterministic time = 80.26 ticks  (466.62 ticks/sec)

CPLEX> Solution written to file 'C:\Users\llavin\Desktop\test919\logs\tmp3qhtzu3o.cplex.sol'.
CPLEX> Exporting results... 
...storage offer mitigation file created
Converting model to MPEC...
...converted
NOTE: initial MIP solve with only storage competitive to get feasible solution
Solving...

Welcome to IBM(R) ILOG(R) CPLEX(R) Interactive Optimizer 12.9.0.0
  with Simplex, Mixed Integer & Barrier Optimizers
5725-A06 5725-A29 5724-Y48 5724-Y49 5724-Y54 5724-Y55 5655-Y21
Copyright IBM Corp. 1988, 2019.  All Rights Reserved.

Type 'help' for a list of available commands.
Type 'help' followed by a command name for more
information on commands.

CPLEX> Logfile 'cplex.log' closed.
Logfile 'C:\Users\llavin\Desktop\test919\logs\tmp7ksby4ad.cplex.log' open.
CPLEX> New value for parallel optimization mode: -1
CPLEX> New value for mixed integer optimality gap tolerance: 0.01
CPLEX> New value for integrality tolerance: 1e-09
CPLEX> New value for feasibility tolerance: 0.01
CPLEX> New value for deterministic time limit in ticks: 75000
CPLEX> Problem 'C:\Users\llavin\Desktop\test919\logs\tmp189mvu52.pyomo.lp' read.
Read time = 0.25 sec. (14.78 ticks)
CPLEX> Problem name         : C:\Users\llavin\Desktop\test919\logs\tmp189mvu52.pyomo.lp
Objective sense      : Maximize
Variables            :   53805  [Nneg: 1,  Box: 22000,  Free: 4464,
                                 Binary: 27340]
Objective nonzeros   :    8980
Linear constraints   :  123205  [Less: 41346,  Greater: 59096,  Equal: 22763]
  Nonzeros           :  291801
  RHS nonzeros       :   67453

Variables            : Min LB: -5000.000        Max UB: 1000000.       
Objective nonzeros   : Min   : 0.07500000       Max   : 816.0833       
Linear constraints   :
  Nonzeros           : Min   : 0.07500000       Max   : 1000000.       
  RHS nonzeros       : Min   : 0.07500000       Max   : 1000000.       
CPLEX> CPXPARAM_Parallel                                -1
CPXPARAM_Simplex_Tolerances_Feasibility          0.01
CPXPARAM_DetTimeLimit                            75000
CPXPARAM_MIP_Tolerances_MIPGap                   0.01
CPXPARAM_MIP_Tolerances_Integrality              1.0000000000000001e-09
Tried aggregator 3 times.
MIP Presolve eliminated 88686 rows and 18986 columns.
MIP Presolve added 3365 rows and 0 columns.
MIP Presolve modified 24888 coefficients.
Aggregator did 12963 substitutions.
Reduced MIP has 24921 rows, 21300 columns, and 71106 nonzeros.
Reduced MIP has 8396 binaries, 0 generals, 0 SOSs, and 0 indicators.
Presolve time = 0.30 sec. (173.56 ticks)
Probing fixed 379 vars, tightened 2803 bounds.
Probing time = 1.22 sec. (894.92 ticks)
Tried aggregator 2 times.
MIP Presolve eliminated 853 rows and 759 columns.
MIP Presolve modified 2192 coefficients.
Aggregator did 42 substitutions.
Reduced MIP has 24026 rows, 20499 columns, and 68510 nonzeros.
Reduced MIP has 8017 binaries, 0 generals, 0 SOSs, and 0 indicators.
Presolve time = 0.11 sec. (69.16 ticks)
Probing time = 0.05 sec. (15.59 ticks)
Clique table members: 6454.
MIP emphasis: balance optimality and feasibility.
MIP search method: dynamic search.
Parallel mode: opportunistic, using up to 32 threads.
Root relaxation solution time = 0.55 sec. (336.63 ticks)

        Nodes                                         Cuts/
   Node  Left     Objective  IInf  Best Integer    Best Bound    ItCnt     Gap

      0     0     7944.4293  1864                   7944.4293     6745         
      0     0     7944.4293   657                   Cuts: 742     7082         
      0     0     7944.2878   555                   Cuts: 444     7288         
      0     0     7944.1463   452                   Cuts: 285     7437         
      0     0     7944.1463   409                   Cuts: 142     7512         
      0     0     7944.1463   367                   Cuts: 136     7574         
      0     0     7944.1463   349                    Cuts: 61     7596         
      0     0     7944.1463   338                    Cuts: 45     7610         
      0     0     7944.1463   334                    Cuts: 32     7614         
      0    10    infeasible                          Fract: 1     7822         
Elapsed time = 9.83 sec. (5936.49 ticks, tree = 0.02 MB, solutions = 0)
*   117    37      integral     0     7942.8900     7942.8900     8003    0.00%

Clique cuts applied:  26
Implied bound cuts applied:  12
Flow cuts applied:  312
Mixed integer rounding cuts applied:  19
Gomory fractional cuts applied:  42

Root node processing (before b&c):
  Real time             =    8.80 sec. (5929.26 ticks)
Parallel b&c, 32 threads:
  Real time             =    2.00 sec. (263.55 ticks)
  Sync time (average)   =    0.46 sec.
  Wait time (average)   =    0.00 sec.
                          ------------
Total (root+branch&cut) =   10.80 sec. (6192.81 ticks)

Solution pool: 2 solutions saved.

MIP - Integer optimal solution:  Objective =  7.9428899734e+03
Solution time =   10.83 sec.  Iterations = 8753  Nodes = 135
Deterministic time = 6192.97 ticks  (571.94 ticks/sec)

CPLEX> Incumbent solution written to file 'C:\Users\llavin\Desktop\test919\logs\tmpkpci5g6p.cplex.sol'.
CPLEX> NOTE: no warmstart specified for MIP iteration, default behavior is true
NOTE: resolving with all competitive generators using storage-only solution to warmstart
Solving...

Welcome to IBM(R) ILOG(R) CPLEX(R) Interactive Optimizer 12.9.0.0
  with Simplex, Mixed Integer & Barrier Optimizers
5725-A06 5725-A29 5724-Y48 5724-Y49 5724-Y54 5724-Y55 5655-Y21
Copyright IBM Corp. 1988, 2019.  All Rights Reserved.

Type 'help' for a list of available commands.
Type 'help' followed by a command name for more
information on commands.

CPLEX> Logfile 'cplex.log' closed.
Logfile 'C:\Users\llavin\Desktop\test919\logs\tmpgm8_q45d.cplex.log' open.
CPLEX> New value for parallel optimization mode: -1
CPLEX> New value for mixed integer optimality gap tolerance: 0.01
CPLEX> New value for integrality tolerance: 1e-09
CPLEX> New value for feasibility tolerance: 0.01
CPLEX> New value for deterministic time limit in ticks: 75000
CPLEX> Problem 'C:\Users\llavin\Desktop\test919\logs\tmp99cbv19j.pyomo.lp' read.
Read time = 0.23 sec. (14.81 ticks)
CPLEX> MIP start file 'C:\Users\llavin\Desktop\test919\logs\tmpdi9xapvd.cplex.mst' read.
CPLEX> Problem name         : C:\Users\llavin\Desktop\test919\logs\tmp99cbv19j.pyomo.lp
Objective sense      : Maximize
Variables            :   54525  [Nneg: 1,  Box: 22720,  Free: 4464,
                                 Binary: 27340]
Objective nonzeros   :    9700
Linear constraints   :  123205  [Less: 41346,  Greater: 59096,  Equal: 22763]
  Nonzeros           :  291801
  RHS nonzeros       :   67453

Variables            : Min LB: -5000.000        Max UB: 1000000.       
Objective nonzeros   : Min   : 0.07500000       Max   : 816.0833       
Linear constraints   :
  Nonzeros           : Min   : 0.07500000       Max   : 1000000.       
  RHS nonzeros       : Min   : 0.07500000       Max   : 1000000.       
CPLEX> CPXPARAM_Parallel                                -1
CPXPARAM_Simplex_Tolerances_Feasibility          0.01
CPXPARAM_DetTimeLimit                            75000
CPXPARAM_MIP_Tolerances_MIPGap                   0.01
CPXPARAM_MIP_Tolerances_Integrality              1.0000000000000001e-09
Warning:  No solution found from 1 MIP starts.
Retaining values of one MIP start for possible repair.
Tried aggregator 3 times.
MIP Presolve eliminated 88686 rows and 19706 columns.
MIP Presolve added 3365 rows and 0 columns.
MIP Presolve modified 24888 coefficients.
Aggregator did 12963 substitutions.
Reduced MIP has 24921 rows, 21300 columns, and 71106 nonzeros.
Reduced MIP has 8396 binaries, 0 generals, 0 SOSs, and 0 indicators.
Presolve time = 0.28 sec. (173.92 ticks)
Probing fixed 379 vars, tightened 2803 bounds.
Probing time = 1.30 sec. (894.92 ticks)
Tried aggregator 2 times.
MIP Presolve eliminated 853 rows and 759 columns.
MIP Presolve modified 2192 coefficients.
Aggregator did 42 substitutions.
Reduced MIP has 24026 rows, 20499 columns, and 68510 nonzeros.
Reduced MIP has 8017 binaries, 0 generals, 0 SOSs, and 0 indicators.
Presolve time = 0.11 sec. (69.16 ticks)
Probing time = 0.05 sec. (15.59 ticks)
Clique table members: 6454.
MIP emphasis: balance optimality and feasibility.
MIP search method: dynamic search.
Parallel mode: opportunistic, using up to 32 threads.
Root relaxation solution time = 0.48 sec. (336.63 ticks)

        Nodes                                         Cuts/
   Node  Left     Objective  IInf  Best Integer    Best Bound    ItCnt     Gap

      0     0     7944.4293  1864                   7944.4293     6745         
      0     0     7944.4293   657                   Cuts: 742     7082         
      0     0     7944.2878   555                   Cuts: 444     7288         
      0     0     7944.1463   452                   Cuts: 285     7437         
      0     0     7944.1463   409                   Cuts: 142     7512         
      0     0     7944.1463   367                   Cuts: 136     7574         
      0     0     7944.1463   349                    Cuts: 61     7596         
      0     0     7944.1463   338                    Cuts: 45     7610         
      0     0     7944.1463   334                    Cuts: 32     7614         
Repair heuristic found nothing.
      0    15    infeasible                          Fract: 1     7878         
Elapsed time = 10.31 sec. (6159.23 ticks, tree = 0.02 MB, solutions = 0)
*   103    36      integral     0     7942.8900     7942.8900     8268    0.00%

Clique cuts applied:  26
Implied bound cuts applied:  12
Flow cuts applied:  312
Mixed integer rounding cuts applied:  19
Gomory fractional cuts applied:  42

Root node processing (before b&c):
  Real time             =    9.28 sec. (6151.43 ticks)
Parallel b&c, 32 threads:
  Real time             =    1.86 sec. (257.27 ticks)
  Sync time (average)   =    0.43 sec.
  Wait time (average)   =    0.00 sec.
                          ------------
Total (root+branch&cut) =   11.14 sec. (6408.70 ticks)

Solution pool: 2 solutions saved.

MIP - Integer optimal solution:  Objective =  7.9428899734e+03
Solution time =   11.19 sec.  Iterations = 8622  Nodes = 129
Deterministic time = 6408.85 ticks  (572.83 ticks/sec)

CPLEX> Incumbent solution written to file 'C:\Users\llavin\Desktop\test919\logs\tmpbjunwhlm.cplex.sol'.
CPLEX> Exporting results... 
